(set-logic QF_LIA)
(declare-fun x0 () Int)
(declare-fun x1 () Int)
(declare-fun x2 () Int)
(declare-fun x3 () Int)
(declare-fun x4 () Int)
(declare-fun x5 () Int)
(declare-fun x6 () Int)
(declare-fun x7 () Int)
(declare-fun x8 () Int)
(declare-fun x9 () Int)
(declare-fun A0 () Bool)
(declare-fun A1 () Bool)
(declare-fun A2 () Bool)
(declare-fun A3 () Bool)
(declare-fun A4 () Bool)
(declare-fun A5 () Bool)
(declare-fun A6 () Bool)
(declare-fun A7 () Bool)
(declare-fun A8 () Bool)
(declare-fun A9 () Bool)
(assert (let ((.def_0 (not A6))) (let ((.def_1 (* 1 x7))) (let ((.def_2 (< .def_1 (- 1)))) (let ((.def_3 (not .def_2))) (let ((.def_4 (or .def_3 .def_0))) (let ((.def_5 (not .def_4))) (let ((.def_6 (* (- 1) x7))) (let ((.def_7 (* (- 1) x9))) (let ((.def_8 (+ .def_7 .def_6))) (let ((.def_9 (< .def_8 (- 1)))) (let ((.def_10 (not .def_9))) (let ((.def_11 (* 1 x8))) (let ((.def_12 (* 1 x9))) (let ((.def_13 (+ .def_12 .def_11))) (let ((.def_14 (< .def_13 (- 1)))) (let ((.def_15 (and .def_14 .def_10))) (let ((.def_16 (and .def_15 .def_5))) (let ((.def_17 (not .def_16))) (let ((.def_18 (* 1 x5))) (let ((.def_19 (+ .def_18 .def_1))) (let ((.def_20 (< .def_19 (- 1)))) (let ((.def_21 (not .def_20))) (let ((.def_22 (* (- 1) x3))) (let ((.def_23 (+ .def_22 .def_1))) (let ((.def_24 (< .def_23 1))) (let ((.def_25 (not .def_24))) (let ((.def_26 (or .def_25 .def_21))) (let ((.def_27 (not .def_26))) (let ((.def_28 (not A3))) (let ((.def_29 (< .def_12 (- 1)))) (let ((.def_30 (not .def_29))) (let ((.def_31 (or .def_30 .def_28))) (let ((.def_32 (and .def_31 .def_27))) (let ((.def_33 (not .def_32))) (let ((.def_34 (and .def_33 .def_17))) (let ((.def_35 (* (- 1) x4))) (let ((.def_36 (< .def_35 1))) (let ((.def_37 (not .def_36))) (let ((.def_38 (or .def_37 A7))) (let ((.def_39 (not .def_38))) (let ((.def_40 (not A8))) (let ((.def_41 (and .def_40 A0))) (let ((.def_42 (or .def_41 .def_39))) (let ((.def_43 (not .def_42))) (let ((.def_44 (< .def_7 (- 1)))) (let ((.def_45 (and A8 .def_44))) (let ((.def_46 (not A1))) (let ((.def_47 (not A5))) (let ((.def_48 (or .def_47 .def_46))) (let ((.def_49 (and .def_48 .def_45))) (let ((.def_50 (or .def_49 .def_43))) (let ((.def_51 (= .def_50 .def_34))) (let ((.def_52 (* 1 x2))) (let ((.def_53 (+ .def_22 .def_52))) (let ((.def_54 (< .def_53 (- 1)))) (let ((.def_55 (not .def_54))) (let ((.def_56 (= A2 .def_55))) (let ((.def_57 (not .def_56))) (let ((.def_58 (or A3 A0))) (let ((.def_59 (not .def_58))) (let ((.def_60 (or .def_59 .def_57))) (let ((.def_61 (not .def_60))) (let ((.def_62 (< .def_18 1))) (let ((.def_63 (not .def_62))) (let ((.def_64 (not A7))) (let ((.def_65 (or .def_64 .def_63))) (let ((.def_66 (or A2 A3))) (let ((.def_67 (and .def_66 .def_65))) (let ((.def_68 (or .def_67 .def_61))) (let ((.def_69 (not .def_68))) (let ((.def_70 (* 1 x0))) (let ((.def_71 (+ .def_18 .def_70))) (let ((.def_72 (< .def_71 (- 1)))) (let ((.def_73 (not .def_72))) (let ((.def_74 (* (- 1) x1))) (let ((.def_75 (+ .def_74 .def_12))) (let ((.def_76 (< .def_75 (- 1)))) (let ((.def_77 (and .def_76 .def_73))) (let ((.def_78 (not .def_77))) (let ((.def_79 (* 1 x6))) (let ((.def_80 (< .def_79 (- 1)))) (let ((.def_81 (not .def_80))) (let ((.def_82 (or .def_46 .def_81))) (let ((.def_83 (not .def_82))) (let ((.def_84 (or .def_83 .def_78))) (let ((.def_85 (< .def_22 1))) (let ((.def_86 (not .def_85))) (let ((.def_87 (* 1 x4))) (let ((.def_88 (* (- 1) x5))) (let ((.def_89 (+ .def_88 .def_87))) (let ((.def_90 (< .def_89 1))) (let ((.def_91 (not .def_90))) (let ((.def_92 (or .def_91 .def_86))) (let ((.def_93 (not .def_92))) (let ((.def_94 (< .def_53 1))) (let ((.def_95 (not .def_94))) (let ((.def_96 (or .def_28 .def_95))) (let ((.def_97 (and .def_96 .def_93))) (let ((.def_98 (and .def_97 .def_84))) (let ((.def_99 (not .def_98))) (let ((.def_100 (and .def_99 .def_69))) (let ((.def_101 (not .def_100))) (let ((.def_102 (and .def_101 .def_51))) (let ((.def_103 (* 1 x3))) (let ((.def_104 (< .def_103 1))) (let ((.def_105 (and .def_64 .def_104))) (let ((.def_106 (not .def_105))) (let ((.def_107 (* (- 1) x2))) (let ((.def_108 (< .def_107 (- 1)))) (let ((.def_109 (not .def_108))) (let ((.def_110 (or A4 .def_109))) (let ((.def_111 (not .def_110))) (let ((.def_112 (= .def_111 .def_106))) (let ((.def_113 (* (- 1) x6))) (let ((.def_114 (* (- 1) x0))) (let ((.def_115 (+ .def_114 .def_113))) (let ((.def_116 (< .def_115 (- 1)))) (let ((.def_117 (not A9))) (let ((.def_118 (or .def_117 .def_116))) (let ((.def_119 (not A0))) (let ((.def_120 (+ .def_12 .def_114))) (let ((.def_121 (< .def_120 (- 1)))) (let ((.def_122 (or .def_121 .def_119))) (let ((.def_123 (or .def_122 .def_118))) (let ((.def_124 (or .def_123 .def_112))) (let ((.def_125 (< .def_87 (- 1)))) (let ((.def_126 (or .def_125 A4))) (let ((.def_127 (not .def_126))) (let ((.def_128 (+ .def_52 .def_88))) (let ((.def_129 (< .def_128 (- 1)))) (let ((.def_130 (and .def_129 A1))) (let ((.def_131 (and .def_130 .def_127))) (let ((.def_132 (not .def_131))) (let ((.def_133 (not A4))) (let ((.def_134 (or .def_81 .def_133))) (let ((.def_135 (< .def_11 1))) (let ((.def_136 (not .def_135))) (let ((.def_137 (= A6 .def_136))) (let ((.def_138 (not .def_137))) (let ((.def_139 (and .def_138 .def_134))) (let ((.def_140 (and .def_139 .def_132))) (let ((.def_141 (and .def_140 .def_124))) (let ((.def_142 (not .def_141))) (let ((.def_143 (< .def_70 (- 1)))) (let ((.def_144 (not .def_143))) (let ((.def_145 (or .def_36 .def_144))) (let ((.def_146 (or A6 A5))) (let ((.def_147 (and .def_146 .def_145))) (let ((.def_148 (or .def_40 .def_119))) (let ((.def_149 (and .def_40 .def_117))) (let ((.def_150 (not .def_149))) (let ((.def_151 (or .def_150 .def_148))) (let ((.def_152 (not .def_151))) (let ((.def_153 (and .def_152 .def_147))) (let ((.def_154 (* (- 1) x8))) (let ((.def_155 (< .def_154 1))) (let ((.def_156 (not .def_155))) (let ((.def_157 (< .def_74 1))) (let ((.def_158 (or .def_157 .def_156))) (let ((.def_159 (or A7 A4))) (let ((.def_160 (and .def_159 .def_158))) (let ((.def_161 (or .def_86 A2))) (let ((.def_162 (not .def_161))) (let ((.def_163 (+ .def_74 .def_87))) (let ((.def_164 (< .def_163 (- 1)))) (let ((.def_165 (not .def_164))) (let ((.def_166 (and .def_165 A4))) (let ((.def_167 (not .def_166))) (let ((.def_168 (and .def_167 .def_162))) (let ((.def_169 (and .def_168 .def_160))) (let ((.def_170 (and .def_169 .def_153))) (let ((.def_171 (= .def_170 .def_142))) (let ((.def_172 (not .def_171))) (let ((.def_173 (or .def_172 .def_102))) (let ((.def_174 (+ .def_12 .def_79))) (let ((.def_175 (< .def_174 (- 1)))) (let ((.def_176 (not .def_175))) (let ((.def_177 (and .def_176 A3))) (let ((.def_178 (< .def_87 1))) (let ((.def_179 (and .def_28 .def_178))) (let ((.def_180 (and .def_179 .def_177))) (let ((.def_181 (+ .def_7 .def_107))) (let ((.def_182 (< .def_181 (- 1)))) (let ((.def_183 (or .def_182 .def_64))) (let ((.def_184 (not .def_183))) (let ((.def_185 (and A5 A8))) (let ((.def_186 (and .def_185 .def_184))) (let ((.def_187 (or .def_186 .def_180))) (let ((.def_188 (+ .def_103 .def_154))) (let ((.def_189 (< .def_188 1))) (let ((.def_190 (< .def_113 1))) (let ((.def_191 (not .def_190))) (let ((.def_192 (or .def_191 .def_189))) (let ((.def_193 (not .def_192))) (let ((.def_194 (+ .def_113 .def_52))) (let ((.def_195 (< .def_194 1))) (let ((.def_196 (not .def_195))) (let ((.def_197 (or .def_196 .def_133))) (let ((.def_198 (not .def_197))) (let ((.def_199 (or .def_198 .def_193))) (let ((.def_200 (not .def_199))) (let ((.def_201 (< .def_35 (- 1)))) (let ((.def_202 (not .def_201))) (let ((.def_203 (and .def_202 A9))) (let ((.def_204 (or .def_46 .def_64))) (let ((.def_205 (not .def_204))) (let ((.def_206 (or .def_205 .def_203))) (let ((.def_207 (not .def_206))) (let ((.def_208 (and .def_207 .def_200))) (let ((.def_209 (not .def_208))) (let ((.def_210 (or .def_209 .def_187))) (let ((.def_211 (and .def_117 A3))) (let ((.def_212 (not .def_211))) (let ((.def_213 (< .def_114 1))) (let ((.def_214 (not .def_213))) (let ((.def_215 (or .def_47 .def_214))) (let ((.def_216 (not .def_215))) (let ((.def_217 (and .def_216 .def_212))) (let ((.def_218 (< .def_1 1))) (let ((.def_219 (not .def_218))) (let ((.def_220 (or .def_219 .def_80))) (let ((.def_221 (+ .def_113 .def_74))) (let ((.def_222 (< .def_221 (- 1)))) (let ((.def_223 (and .def_222 .def_46))) (let ((.def_224 (and .def_223 .def_220))) (let ((.def_225 (not .def_224))) (let ((.def_226 (= .def_225 .def_217))) (let ((.def_227 (and .def_28 .def_62))) (let ((.def_228 (not .def_227))) (let ((.def_229 (< .def_12 1))) (let ((.def_230 (not .def_229))) (let ((.def_231 (not A2))) (let ((.def_232 (= .def_231 .def_230))) (let ((.def_233 (not .def_232))) (let ((.def_234 (or .def_233 .def_228))) (let ((.def_235 (not .def_234))) (let ((.def_236 (+ .def_74 .def_103))) (let ((.def_237 (< .def_236 1))) (let ((.def_238 (not .def_237))) (let ((.def_239 (= .def_47 .def_238))) (let ((.def_240 (not .def_239))) (let ((.def_241 (< .def_6 1))) (let ((.def_242 (not .def_241))) (let ((.def_243 (and .def_242 .def_28))) (let ((.def_244 (and .def_243 .def_240))) (let ((.def_245 (not .def_244))) (let ((.def_246 (and .def_245 .def_235))) (let ((.def_247 (and .def_246 .def_226))) (let ((.def_248 (not .def_247))) (let ((.def_249 (= .def_248 .def_210))) (let ((.def_250 (< .def_114 (- 1)))) (let ((.def_251 (not .def_250))) (let ((.def_252 (or A8 .def_251))) (let ((.def_253 (< .def_7 1))) (let ((.def_254 (or .def_253 A5))) (let ((.def_255 (not .def_254))) (let ((.def_256 (and .def_255 .def_252))) (let ((.def_257 (< .def_6 (- 1)))) (let ((.def_258 (not .def_257))) (let ((.def_259 (and .def_64 .def_258))) (let ((.def_260 (not .def_259))) (let ((.def_261 (or .def_64 A8))) (let ((.def_262 (= .def_261 .def_260))) (let ((.def_263 (or .def_262 .def_256))) (let ((.def_264 (not .def_263))) (let ((.def_265 (+ .def_35 .def_18))) (let ((.def_266 (< .def_265 (- 1)))) (let ((.def_267 (or .def_266 .def_136))) (let ((.def_268 (not .def_267))) (let ((.def_269 (and A1 A5))) (let ((.def_270 (or .def_269 .def_268))) (let ((.def_271 (and .def_28 A1))) (let ((.def_272 (not .def_271))) (let ((.def_273 (and A1 A8))) (let ((.def_274 (not .def_273))) (let ((.def_275 (or .def_274 .def_272))) (let ((.def_276 (not .def_275))) (let ((.def_277 (or .def_276 .def_270))) (let ((.def_278 (and .def_277 .def_264))) (let ((.def_279 (not .def_278))) (let ((.def_280 (or .def_37 .def_62))) (let ((.def_281 (not .def_280))) (let ((.def_282 (and A7 .def_135))) (let ((.def_283 (not .def_282))) (let ((.def_284 (and .def_283 .def_281))) (let ((.def_285 (= A2 .def_28))) (let ((.def_286 (not .def_285))) (let ((.def_287 (+ .def_35 .def_113))) (let ((.def_288 (< .def_287 (- 1)))) (let ((.def_289 (or A5 .def_288))) (let ((.def_290 (and .def_289 .def_286))) (let ((.def_291 (and .def_290 .def_284))) (let ((.def_292 (+ .def_12 .def_6))) (let ((.def_293 (< .def_292 (- 1)))) (let ((.def_294 (not .def_293))) (let ((.def_295 (or A6 .def_294))) (let ((.def_296 (= A0 .def_47))) (let ((.def_297 (or .def_296 .def_295))) (let ((.def_298 (or .def_157 A8))) (let ((.def_299 (not .def_298))) (let ((.def_300 (or .def_231 .def_46))) (let ((.def_301 (and .def_300 .def_299))) (let ((.def_302 (or .def_301 .def_297))) (let ((.def_303 (not .def_302))) (let ((.def_304 (= .def_303 .def_291))) (let ((.def_305 (and .def_304 .def_279))) (let ((.def_306 (or .def_305 .def_249))) (let ((.def_307 (not .def_306))) (let ((.def_308 (= .def_307 .def_173))) (let ((.def_309 (+ .def_6 .def_113))) (let ((.def_310 (< .def_309 (- 1)))) (let ((.def_311 (not .def_310))) (let ((.def_312 (+ .def_12 .def_18))) (let ((.def_313 (< .def_312 (- 1)))) (let ((.def_314 (or .def_313 .def_311))) (let ((.def_315 (not .def_314))) (let ((.def_316 (= .def_229 A1))) (let ((.def_317 (or .def_316 .def_315))) (let ((.def_318 (not .def_317))) (let ((.def_319 (= A6 .def_241))) (let ((.def_320 (and A6 .def_133))) (let ((.def_321 (not .def_320))) (let ((.def_322 (or .def_321 .def_319))) (let ((.def_323 (not .def_322))) (let ((.def_324 (and .def_323 .def_318))) (let ((.def_325 (+ .def_1 .def_7))) (let ((.def_326 (< .def_325 1))) (let ((.def_327 (not .def_326))) (let ((.def_328 (or .def_85 .def_327))) (let ((.def_329 (+ .def_88 .def_74))) (let ((.def_330 (< .def_329 (- 1)))) (let ((.def_331 (or .def_330 A7))) (let ((.def_332 (not .def_331))) (let ((.def_333 (or .def_332 .def_328))) (let ((.def_334 (not .def_44))) (let ((.def_335 (and A5 .def_334))) (let ((.def_336 (or .def_47 .def_47))) (let ((.def_337 (not .def_336))) (let ((.def_338 (or .def_337 .def_335))) (let ((.def_339 (and .def_338 .def_333))) (let ((.def_340 (and .def_339 .def_324))) (let ((.def_341 (not .def_340))) (let ((.def_342 (+ .def_88 .def_154))) (let ((.def_343 (< .def_342 (- 1)))) (let ((.def_344 (not .def_343))) (let ((.def_345 (+ .def_114 .def_22))) (let ((.def_346 (< .def_345 1))) (let ((.def_347 (and .def_346 .def_344))) (let ((.def_348 (and .def_30 A8))) (let ((.def_349 (not .def_348))) (let ((.def_350 (or .def_349 .def_347))) (let ((.def_351 (+ .def_103 .def_11))) (let ((.def_352 (< .def_351 1))) (let ((.def_353 (and .def_352 .def_253))) (let ((.def_354 (not .def_353))) (let ((.def_355 (or .def_119 .def_47))) (let ((.def_356 (not .def_355))) (let ((.def_357 (and .def_356 .def_354))) (let ((.def_358 (not .def_357))) (let ((.def_359 (or .def_358 .def_350))) (let ((.def_360 (not .def_359))) (let ((.def_361 (+ .def_154 .def_22))) (let ((.def_362 (< .def_361 1))) (let ((.def_363 (and A6 .def_362))) (let ((.def_364 (and .def_30 A2))) (let ((.def_365 (or .def_364 .def_363))) (let ((.def_366 (not .def_365))) (let ((.def_367 (+ .def_70 .def_154))) (let ((.def_368 (< .def_367 (- 1)))) (let ((.def_369 (and .def_368 .def_251))) (let ((.def_370 (+ .def_7 .def_113))) (let ((.def_371 (< .def_370 (- 1)))) (let ((.def_372 (or .def_371 .def_46))) (let ((.def_373 (= .def_372 .def_369))) (let ((.def_374 (and .def_373 .def_366))) (let ((.def_375 (not .def_374))) (let ((.def_376 (or .def_375 .def_360))) (let ((.def_377 (or .def_376 .def_341))) (let ((.def_378 (not .def_377))) (let ((.def_379 (or .def_47 .def_28))) (let ((.def_380 (not .def_379))) (let ((.def_381 (+ .def_11 .def_22))) (let ((.def_382 (< .def_381 1))) (let ((.def_383 (not .def_382))) (let ((.def_384 (and .def_383 A1))) (let ((.def_385 (or .def_384 .def_380))) (let ((.def_386 (not .def_385))) (let ((.def_387 (and .def_46 A2))) (let ((.def_388 (not .def_387))) (let ((.def_389 (+ .def_6 .def_35))) (let ((.def_390 (< .def_389 1))) (let ((.def_391 (or A0 .def_390))) (let ((.def_392 (or .def_391 .def_388))) (let ((.def_393 (not .def_392))) (let ((.def_394 (or .def_393 .def_386))) (let ((.def_395 (* 1 x1))) (let ((.def_396 (+ .def_395 .def_6))) (let ((.def_397 (< .def_396 1))) (let ((.def_398 (or .def_397 .def_28))) (let ((.def_399 (not .def_398))) (let ((.def_400 (< .def_154 (- 1)))) (let ((.def_401 (+ .def_88 .def_22))) (let ((.def_402 (< .def_401 (- 1)))) (let ((.def_403 (not .def_402))) (let ((.def_404 (and .def_403 .def_400))) (let ((.def_405 (or .def_404 .def_399))) (let ((.def_406 (not .def_405))) (let ((.def_407 (or .def_136 A6))) (let ((.def_408 (not .def_146))) (let ((.def_409 (or .def_408 .def_407))) (let ((.def_410 (or .def_409 .def_406))) (let ((.def_411 (and .def_410 .def_394))) (let ((.def_412 (not .def_411))) (let ((.def_413 (< .def_113 (- 1)))) (let ((.def_414 (and .def_413 .def_117))) (let ((.def_415 (+ .def_113 .def_35))) (let ((.def_416 (< .def_415 1))) (let ((.def_417 (and .def_133 .def_416))) (let ((.def_418 (not .def_417))) (let ((.def_419 (and .def_418 .def_414))) (let ((.def_420 (+ .def_79 .def_12))) (let ((.def_421 (< .def_420 1))) (let ((.def_422 (not .def_421))) (let ((.def_423 (or .def_143 .def_422))) (let ((.def_424 (not .def_423))) (let ((.def_425 (+ .def_18 .def_103))) (let ((.def_426 (< .def_425 (- 1)))) (let ((.def_427 (not .def_426))) (let ((.def_428 (+ .def_18 .def_52))) (let ((.def_429 (< .def_428 (- 1)))) (let ((.def_430 (or .def_429 .def_427))) (let ((.def_431 (not .def_430))) (let ((.def_432 (and .def_431 .def_424))) (let ((.def_433 (or .def_432 .def_419))) (let ((.def_434 (+ .def_87 .def_6))) (let ((.def_435 (< .def_434 (- 1)))) (let ((.def_436 (< .def_88 (- 1)))) (let ((.def_437 (and .def_436 .def_435))) (let ((.def_438 (not .def_437))) (let ((.def_439 (and A3 A6))) (let ((.def_440 (not .def_439))) (let ((.def_441 (and .def_440 .def_438))) (let ((.def_442 (not .def_441))) (let ((.def_443 (+ .def_22 .def_11))) (let ((.def_444 (< .def_443 1))) (let ((.def_445 (not .def_444))) (let ((.def_446 (and .def_46 .def_445))) (let ((.def_447 (not .def_446))) (let ((.def_448 (or A2 .def_46))) (let ((.def_449 (not .def_448))) (let ((.def_450 (and .def_449 .def_447))) (let ((.def_451 (not .def_450))) (let ((.def_452 (and .def_451 .def_442))) (let ((.def_453 (not .def_452))) (let ((.def_454 (or .def_453 .def_433))) (let ((.def_455 (or .def_454 .def_412))) (let ((.def_456 (not .def_455))) (let ((.def_457 (or .def_456 .def_378))) (let ((.def_458 (+ .def_22 .def_88))) (let ((.def_459 (< .def_458 (- 1)))) (let ((.def_460 (and .def_47 .def_459))) (let ((.def_461 (not .def_460))) (let ((.def_462 (+ .def_79 .def_18))) (let ((.def_463 (< .def_462 1))) (let ((.def_464 (= .def_463 .def_3))) (let ((.def_465 (or .def_464 .def_461))) (let ((.def_466 (not .def_465))) (let ((.def_467 (and .def_190 A2))) (let ((.def_468 (not .def_467))) (let ((.def_469 (< .def_395 1))) (let ((.def_470 (or .def_400 .def_469))) (let ((.def_471 (or .def_470 .def_468))) (let ((.def_472 (not .def_471))) (let ((.def_473 (or .def_472 .def_466))) (let ((.def_474 (not .def_473))) (let ((.def_475 (and .def_334 .def_40))) (let ((.def_476 (not .def_475))) (let ((.def_477 (and .def_46 .def_28))) (let ((.def_478 (= .def_477 .def_476))) (let ((.def_479 (+ .def_18 .def_87))) (let ((.def_480 (< .def_479 (- 1)))) (let ((.def_481 (< .def_107 1))) (let ((.def_482 (or .def_481 .def_480))) (let ((.def_483 (not .def_482))) (let ((.def_484 (not .def_178))) (let ((.def_485 (or .def_484 .def_229))) (let ((.def_486 (not .def_485))) (let ((.def_487 (= .def_486 .def_483))) (let ((.def_488 (or .def_487 .def_478))) (let ((.def_489 (not .def_488))) (let ((.def_490 (and .def_489 .def_474))) (let ((.def_491 (not .def_490))) (let ((.def_492 (+ .def_113 .def_22))) (let ((.def_493 (< .def_492 (- 1)))) (let ((.def_494 (not .def_493))) (let ((.def_495 (and .def_494 .def_40))) (let ((.def_496 (not .def_495))) (let ((.def_497 (or .def_117 .def_64))) (let ((.def_498 (not .def_497))) (let ((.def_499 (or .def_498 .def_496))) (let ((.def_500 (not .def_499))) (let ((.def_501 (not .def_104))) (let ((.def_502 (+ .def_114 .def_74))) (let ((.def_503 (< .def_502 (- 1)))) (let ((.def_504 (not .def_503))) (let ((.def_505 (or .def_504 .def_501))) (let ((.def_506 (not .def_505))) (let ((.def_507 (or A8 .def_202))) (let ((.def_508 (not .def_507))) (let ((.def_509 (and .def_508 .def_506))) (let ((.def_510 (not .def_509))) (let ((.def_511 (or .def_510 .def_500))) (let ((.def_512 (not .def_511))) (let ((.def_513 (+ .def_103 .def_87))) (let ((.def_514 (< .def_513 1))) (let ((.def_515 (not .def_514))) (let ((.def_516 (+ .def_87 .def_7))) (let ((.def_517 (< .def_516 1))) (let ((.def_518 (or .def_517 .def_515))) (let ((.def_519 (< .def_52 (- 1)))) (let ((.def_520 (not .def_519))) (let ((.def_521 (+ .def_12 .def_1))) (let ((.def_522 (< .def_521 (- 1)))) (let ((.def_523 (not .def_522))) (let ((.def_524 (or .def_523 .def_520))) (let ((.def_525 (not .def_524))) (let ((.def_526 (and .def_525 .def_518))) (let ((.def_527 (+ .def_88 .def_7))) (let ((.def_528 (< .def_527 1))) (let ((.def_529 (not .def_528))) (let ((.def_530 (and .def_0 .def_529))) (let ((.def_531 (not .def_413))) (let ((.def_532 (or .def_469 .def_531))) (let ((.def_533 (or .def_532 .def_530))) (let ((.def_534 (and .def_533 .def_526))) (let ((.def_535 (not .def_534))) (let ((.def_536 (and .def_535 .def_512))) (let ((.def_537 (not .def_536))) (let ((.def_538 (or .def_537 .def_491))) (let ((.def_539 (not .def_538))) (let ((.def_540 (+ .def_70 .def_113))) (let ((.def_541 (< .def_540 (- 1)))) (let ((.def_542 (not .def_541))) (let ((.def_543 (or .def_542 .def_119))) (let ((.def_544 (or .def_520 .def_0))) (let ((.def_545 (or .def_544 .def_543))) (let ((.def_546 (not .def_545))) (let ((.def_547 (not .def_436))) (let ((.def_548 (and .def_40 .def_547))) (let ((.def_549 (not .def_548))) (let ((.def_550 (+ .def_87 .def_70))) (let ((.def_551 (< .def_550 1))) (let ((.def_552 (or .def_551 .def_242))) (let ((.def_553 (not .def_552))) (let ((.def_554 (or .def_553 .def_549))) (let ((.def_555 (not .def_554))) (let ((.def_556 (and .def_555 .def_546))) (let ((.def_557 (not .def_556))) (let ((.def_558 (or A1 A7))) (let ((.def_559 (< .def_11 (- 1)))) (let ((.def_560 (not .def_559))) (let ((.def_561 (+ .def_11 .def_114))) (let ((.def_562 (< .def_561 (- 1)))) (let ((.def_563 (and .def_562 .def_560))) (let ((.def_564 (not .def_563))) (let ((.def_565 (and .def_564 .def_558))) (let ((.def_566 (= .def_46 .def_125))) (let ((.def_567 (and A6 A0))) (let ((.def_568 (not .def_567))) (let ((.def_569 (or .def_568 .def_566))) (let ((.def_570 (not .def_569))) (let ((.def_571 (or .def_570 .def_565))) (let ((.def_572 (not .def_571))) (let ((.def_573 (and .def_572 .def_557))) (let ((.def_574 (not .def_573))) (let ((.def_575 (+ .def_395 .def_7))) (let ((.def_576 (< .def_575 (- 1)))) (let ((.def_577 (not .def_576))) (let ((.def_578 (and .def_577 A6))) (let ((.def_579 (+ .def_107 .def_88))) (let ((.def_580 (< .def_579 (- 1)))) (let ((.def_581 (and .def_580 A1))) (let ((.def_582 (= .def_581 .def_578))) (let ((.def_583 (not .def_582))) (let ((.def_584 (or A9 .def_46))) (let ((.def_585 (not .def_584))) (let ((.def_586 (+ .def_7 .def_103))) (let ((.def_587 (< .def_586 1))) (let ((.def_588 (and A5 .def_587))) (let ((.def_589 (or .def_588 .def_585))) (let ((.def_590 (and .def_589 .def_583))) (let ((.def_591 (not .def_590))) (let ((.def_592 (or A3 .def_2))) (let ((.def_593 (or .def_257 A5))) (let ((.def_594 (not .def_593))) (let ((.def_595 (or .def_594 .def_592))) (let ((.def_596 (not .def_595))) (let ((.def_597 (+ .def_18 .def_11))) (let ((.def_598 (< .def_597 1))) (let ((.def_599 (not .def_598))) (let ((.def_600 (or .def_599 .def_119))) (let ((.def_601 (not .def_600))) (let ((.def_602 (+ .def_35 .def_22))) (let ((.def_603 (< .def_602 (- 1)))) (let ((.def_604 (or .def_603 A3))) (let ((.def_605 (not .def_604))) (let ((.def_606 (= .def_605 .def_601))) (let ((.def_607 (and .def_606 .def_596))) (let ((.def_608 (and .def_607 .def_591))) (let ((.def_609 (and .def_608 .def_574))) (let ((.def_610 (and .def_609 .def_539))) (let ((.def_611 (or .def_610 .def_457))) (let ((.def_612 (or .def_611 .def_308))) (let ((.def_613 (not .def_612))) (let ((.def_614 (<= x9 1))) (let ((.def_615 (<= 0 x9))) (let ((.def_616 (<= x8 1))) (let ((.def_617 (<= 0 x8))) (let ((.def_618 (<= x7 1))) (let ((.def_619 (<= 0 x7))) (let ((.def_620 (<= x6 1))) (let ((.def_621 (<= 0 x6))) (let ((.def_622 (<= x5 1))) (let ((.def_623 (<= 0 x5))) (let ((.def_624 (<= x4 1))) (let ((.def_625 (<= 0 x4))) (let ((.def_626 (<= x3 1))) (let ((.def_627 (<= 0 x3))) (let ((.def_628 (<= x2 1))) (let ((.def_629 (<= 0 x2))) (let ((.def_630 (<= x1 1))) (let ((.def_631 (<= 0 x1))) (let ((.def_632 (<= x0 1))) (let ((.def_633 (<= 0 x0))) (let ((.def_634 (and .def_633 .def_632 .def_631 .def_630 .def_629 .def_628 .def_627 .def_626 .def_625 .def_624 .def_623 .def_622 .def_621 .def_620 .def_619 .def_618 .def_617 .def_616 .def_615 .def_614 .def_613))) .def_634))))))))))))))))))))))))))))))))))))))))))))))))))))))))))))))))))))))))))))))))))))))))))))))))))))))))))))))))))))))))))))))))))))))))))))))))))))))))))))))))))))))))))))))))))))))))))))))))))))))))))))))))))))))))))))))))))))))))))))))))))))))))))))))))))))))))))))))))))))))))))))))))))))))))))))))))))))))))))))))))))))))))))))))))))))))))))))))))))))))))))))))))))))))))))))))))))))))))))))))))))))))))))))))))))))))))))))))))))))))))))))))))))))))))))))))))))))))))))))))))))))))))))))))))))))))))))))))))))))))))))))))))))))))))))))))))))))))))))))))))))))))))))))))))))))))))))))))))))))))))))))))))))))))))))))))))))))))))))))
(check-sat)
